1253323
0,100,97,34,4,44,89,108,23,22,14,16,52,99,101,53,57,21,63,103,96,90,88,10,48,9,65,76,8,36,25,40,37,71,56,74,85,26,68,69,13,38,30,46,70,98,104,92,95,86,61,18,72,75,49,17,6,87,64,35,27,7,67,39,11,59,41,107,32,77,105,54,12,20,79,47,55,102,91,73,3,66,78,29,5,94,31,60,84,42,43,19,62,2,82,24,15,106,93,80,1,50,83,58,45,28,51,33,81,0